4 100 1479
8 3 9 6 5 7 7 5 4 10
2 4 4 4
1 6
7 3 1 8
3 1 4 7
9 9 8 7
0 35.0 35.0 0.0 0.0 0 230
2 41.0 49.0 10.0 10.0 151 181 82 0 1 0 0 0 0 0 1 0 0
3 35.0 17.0 10.0 7.0 40 70 86 0 1 0 0 0 0 0 0 0 1
4 55.0 45.0 10.0 13.0 106 136 79 0 0 1 0 0 0 0 0 1 0
5 55.0 20.0 10.0 19.0 139 169 98 0 0 0 0 0 1 0 0 0 0
6 15.0 30.0 10.0 26.0 24 54 99 0 0 1 0 0 0 0 0 0 1
7 25.0 30.0 10.0 3.0 89 119 17 0 0 0 0 1 0 1 0 1 0
8 20.0 50.0 10.0 5.0 71 101 92 1 0 0 0 1 0 1 1 0 0
9 10.0 43.0 10.0 9.0 85 115 48 1 1 0 0 0 0 0 0 0 0
10 55.0 60.0 10.0 16.0 87 117 86 1 0 1 0 0 0 0 0 1 0
11 30.0 60.0 10.0 16.0 114 144 2 0 0 0 0 0 0 0 0 0 1
12 20.0 65.0 10.0 12.0 57 87 41 1 0 0 0 1 0 1 0 0 0
13 50.0 35.0 10.0 19.0 53 83 40 0 1 1 0 0 1 0 0 0 0
14 30.0 25.0 10.0 23.0 149 179 23 0 0 0 0 0 0 0 0 0 1
15 15.0 10.0 10.0 20.0 32 62 33 0 0 0 0 1 0 0 0 0 0
16 30.0 5.0 10.0 8.0 51 81 24 0 0 0 0 1 1 1 0 1 0
17 10.0 20.0 10.0 19.0 65 95 25 0 0 1 0 0 0 0 0 0 0
18 5.0 30.0 10.0 2.0 147 177 76 0 0 1 0 0 0 0 0 0 0
19 20.0 40.0 10.0 12.0 77 107 1 1 0 1 0 0 0 1 0 0 1
20 15.0 60.0 10.0 17.0 66 96 37 0 0 1 1 0 0 0 0 0 0
21 45.0 65.0 10.0 9.0 116 146 5 1 0 0 0 0 0 1 0 0 0
22 45.0 20.0 10.0 11.0 52 82 13 0 0 1 0 0 1 0 0 0 0
23 45.0 10.0 10.0 18.0 87 117 61 0 0 1 0 1 0 0 0 0 0
24 55.0 5.0 10.0 29.0 58 88 48 0 0 1 0 0 1 0 0 0 0
25 65.0 35.0 10.0 3.0 143 173 0 0 1 1 0 0 0 0 1 0 0
26 65.0 20.0 10.0 6.0 156 186 91 0 0 0 1 0 1 0 0 0 1
27 45.0 30.0 10.0 17.0 122 152 7 0 0 0 0 0 1 0 0 0 0
28 35.0 40.0 10.0 16.0 27 57 60 0 1 0 0 0 0 1 0 0 0
29 41.0 37.0 10.0 16.0 29 59 11 0 0 0 0 0 1 0 0 0 0
30 64.0 42.0 10.0 9.0 53 83 37 0 0 0 0 0 1 0 0 0 0
31 40.0 60.0 10.0 21.0 61 91 11 0 0 0 1 0 0 0 0 0 1
32 31.0 52.0 10.0 27.0 40 70 0 1 0 0 1 0 0 1 0 0 0
33 35.0 69.0 10.0 23.0 131 161 0 0 0 1 0 0 0 0 0 1 0
34 53.0 52.0 10.0 11.0 27 57 68 1 1 0 1 0 0 1 1 0 0
35 65.0 55.0 10.0 14.0 107 137 97 0 0 0 0 0 1 0 0 0 0
36 63.0 65.0 10.0 8.0 133 163 9 1 0 0 0 0 0 0 1 0 0
37 2.0 60.0 10.0 5.0 41 71 81 0 0 1 0 0 0 0 0 0 0
38 20.0 20.0 10.0 8.0 124 154 44 0 0 0 0 0 1 0 0 0 0
39 5.0 5.0 10.0 16.0 73 103 36 0 1 0 0 0 0 0 0 0 0
40 60.0 12.0 10.0 31.0 34 64 23 1 0 1 0 0 0 0 0 0 0
41 40.0 25.0 10.0 9.0 75 105 67 0 0 0 0 0 0 1 0 0 0
42 42.0 7.0 10.0 5.0 87 117 88 1 0 0 0 0 0 0 0 1 0
43 24.0 12.0 10.0 5.0 25 55 79 0 1 0 0 0 0 0 0 1 0
44 23.0 3.0 10.0 7.0 122 152 1 0 0 0 0 0 1 0 0 0 0
45 11.0 14.0 10.0 18.0 59 89 2 1 0 0 0 0 0 0 1 0 0
46 6.0 38.0 10.0 16.0 29 59 35 0 0 0 0 0 0 0 1 0 0
47 2.0 48.0 10.0 1.0 107 137 46 0 0 0 1 0 0 0 0 1 0
48 8.0 56.0 10.0 27.0 41 71 23 0 0 0 0 1 0 1 0 0 0
49 13.0 52.0 10.0 36.0 155 185 18 0 0 0 0 0 1 0 0 0 0
50 6.0 68.0 10.0 30.0 98 128 21 0 0 0 0 0 0 0 0 0 1
51 47.0 47.0 10.0 13.0 114 144 80 0 0 0 0 0 1 0 0 0 0
52 49.0 58.0 10.0 10.0 78 108 23 0 0 0 0 0 1 0 0 0 0
53 27.0 43.0 10.0 9.0 42 72 21 0 0 0 1 1 1 0 1 0 0
54 37.0 31.0 10.0 14.0 85 115 46 0 0 0 0 0 0 0 1 0 1
55 57.0 29.0 10.0 18.0 130 160 1 0 0 0 0 0 0 1 0 0 0
56 63.0 23.0 10.0 2.0 126 156 17 0 0 0 0 0 1 0 1 0 1
57 53.0 12.0 10.0 6.0 120 150 96 1 0 0 0 0 0 0 1 1 0
58 32.0 12.0 10.0 7.0 91 121 65 0 0 1 0 1 0 0 0 0 0
59 36.0 26.0 10.0 18.0 180 210 99 0 0 0 0 1 1 0 0 0 0
60 21.0 24.0 10.0 28.0 17 47 32 0 0 0 0 0 0 0 0 0 1
61 17.0 34.0 10.0 3.0 152 182 84 1 0 0 0 0 1 0 0 0 0
62 12.0 24.0 10.0 13.0 66 96 45 0 1 1 1 0 0 0 0 0 0
63 24.0 58.0 10.0 19.0 48 78 35 0 1 0 0 0 0 1 1 0 0
64 27.0 69.0 10.0 10.0 34 64 98 0 0 0 0 0 1 0 0 0 0
65 15.0 77.0 10.0 9.0 63 93 14 0 0 0 0 0 1 0 0 0 0
66 62.0 77.0 10.0 20.0 49 79 2 0 0 1 0 0 1 0 0 0 1
67 49.0 73.0 10.0 25.0 117 147 2 0 0 0 0 0 1 0 0 0 0
68 67.0 5.0 10.0 25.0 73 103 12 0 1 0 0 0 0 1 0 0 0
69 56.0 39.0 10.0 36.0 132 162 70 0 1 1 0 0 0 0 0 0 0
70 37.0 47.0 10.0 6.0 40 70 38 0 0 0 0 0 0 0 0 0 1
71 37.0 56.0 10.0 5.0 168 198 94 1 0 0 1 0 1 0 0 1 1
72 57.0 68.0 10.0 15.0 67 97 95 0 0 0 1 0 1 0 1 0 0
73 47.0 16.0 10.0 25.0 25 55 65 0 0 0 0 0 1 0 0 0 0
74 44.0 17.0 10.0 9.0 68 98 36 0 0 0 1 0 0 0 0 0 0
75 46.0 13.0 10.0 8.0 139 169 47 0 0 1 0 0 0 1 0 0 0
76 49.0 11.0 10.0 18.0 59 89 7 0 0 1 0 1 1 0 0 0 0
77 49.0 42.0 10.0 13.0 63 93 90 0 0 0 0 0 0 0 0 0 1
78 53.0 43.0 10.0 14.0 169 199 41 1 0 1 0 0 1 0 0 1 1
79 61.0 52.0 10.0 3.0 86 116 58 1 0 0 0 0 0 0 1 0 1
80 57.0 48.0 10.0 23.0 82 112 37 0 0 0 1 0 0 1 0 0 1
81 56.0 37.0 10.0 6.0 168 198 73 1 0 0 0 1 0 0 0 0 0
82 55.0 54.0 10.0 26.0 84 114 34 0 0 1 0 0 0 0 1 0 1
83 15.0 47.0 10.0 16.0 45 75 77 0 0 1 0 0 0 0 0 1 0
84 14.0 37.0 10.0 11.0 34 64 0 0 0 0 0 0 0 0 0 1 0
85 11.0 31.0 10.0 7.0 91 121 56 0 0 0 0 0 1 1 0 0 0
86 16.0 22.0 10.0 41.0 81 111 54 0 0 0 0 0 0 0 1 0 0
87 4.0 18.0 10.0 35.0 84 114 9 0 0 0 0 0 0 1 0 0 1
88 28.0 18.0 10.0 26.0 83 113 1 1 0 0 0 0 0 1 1 0 0
89 26.0 52.0 10.0 9.0 64 94 49 1 0 0 1 0 0 0 0 0 0
90 26.0 35.0 10.0 15.0 166 196 1 0 0 0 1 0 0 0 0 0 1
91 31.0 67.0 10.0 3.0 85 115 17 0 0 0 0 0 0 0 0 0 1
92 15.0 19.0 10.0 1.0 150 180 5 0 0 0 0 0 0 0 0 1 0
93 22.0 22.0 10.0 2.0 18 48 20 1 0 0 1 0 0 0 0 1 1
94 18.0 24.0 10.0 22.0 169 199 51 0 0 0 0 0 0 0 0 0 1
95 26.0 27.0 10.0 27.0 90 120 64 1 1 0 0 0 0 0 0 0 0
96 25.0 24.0 10.0 20.0 29 59 49 0 0 0 0 0 1 0 0 1 0
97 22.0 27.0 10.0 11.0 125 155 54 0 0 0 0 0 1 0 0 0 0
98 25.0 21.0 10.0 12.0 123 153 38 0 0 0 0 0 0 1 0 0 0
99 19.0 21.0 10.0 10.0 48 78 22 0 0 0 1 0 0 1 1 0 0
100 20.0 26.0 10.0 9.0 73 103 12 0 0 0 0 0 0 0 0 0 1
101 18.0 18.0 10.0 17.0 165 195 96 1 0 0 1 0 0 0 0 0 0